\ENCODING=ISO-8859-1
\Problem name: TSP

Minimize
 obj1: 83 x1 + 93 x2 + 129 x3 + 133 x4 + 139 x5 + 151 x6 + 169 x7 + 135 x8
       + 114 x9 + 110 x10 + 98 x11 + 99 x12 + 95 x13 + 81 x14 + 152 x15
       + 159 x16 + 181 x17 + 172 x18 + 185 x19 + 147 x20 + 157 x21 + 185 x22
       + 220 x23 + 127 x24 + 181 x25 + 40 x26 + 53 x27 + 62 x28 + 64 x29
       + 91 x30 + 116 x31 + 93 x32 + 84 x33 + 95 x34 + 98 x35 + 89 x36 + 68 x37
       + 67 x38 + 127 x39 + 156 x40 + 175 x41 + 152 x42 + 165 x43 + 160 x44
       + 180 x45 + 223 x46 + 268 x47 + 179 x48 + 197 x49 + 42 x50 + 42 x51
       + 49 x52 + 59 x53 + 81 x54 + 54 x55 + 44 x56 + 58 x57 + 64 x58 + 54 x59
       + 31 x60 + 36 x61 + 86 x62 + 117 x63 + 135 x64 + 112 x65 + 125 x66
       + 124 x67 + 147 x68 + 193 x69 + 241 x70 + 157 x71 + 161 x72 + 11 x73
       + 11 x74 + 46 x75 + 72 x76 + 65 x77 + 70 x78 + 88 x79 + 100 x80 + 89 x81
       + 66 x82 + 76 x83 + 102 x84 + 142 x85 + 156 x86 + 127 x87 + 139 x88
       + 155 x89 + 180 x90 + 228 x91 + 278 x92 + 197 x93 + 190 x94 + 9 x95
       + 35 x96 + 61 x97 + 55 x98 + 62 x99 + 82 x100 + 95 x101 + 84 x102
       + 62 x103 + 74 x104 + 93 x105 + 133 x106 + 146 x107 + 117 x108
       + 128 x109 + 148 x110 + 173 x111 + 222 x112 + 272 x113 + 194 x114
       + 182 x115 + 39 x116 + 65 x117 + 63 x118 + 71 x119 + 90 x120 + 103 x121
       + 92 x122 + 71 x123 + 82 x124 + 100 x125 + 141 x126 + 153 x127
       + 124 x128 + 135 x129 + 156 x130 + 181 x131 + 230 x132 + 280 x133
       + 202 x134 + 190 x135 + 26 x136 + 34 x137 + 52 x138 + 71 x139 + 88 x140
       + 77 x141 + 63 x142 + 78 x143 + 66 x144 + 110 x145 + 119 x146 + 88 x147
       + 98 x148 + 130 x149 + 156 x150 + 206 x151 + 257 x152 + 188 x153
       + 160 x154 + 37 x155 + 59 x156 + 75 x157 + 92 x158 + 83 x159 + 76 x160
       + 91 x161 + 54 x162 + 98 x163 + 103 x164 + 70 x165 + 78 x166 + 122 x167
       + 148 x168 + 198 x169 + 250 x170 + 188 x171 + 148 x172 + 22 x173
       + 39 x174 + 56 x175 + 47 x176 + 40 x177 + 55 x178 + 37 x179 + 78 x180
       + 91 x181 + 62 x182 + 74 x183 + 96 x184 + 122 x185 + 172 x186 + 223 x187
       + 155 x188 + 128 x189 + 20 x190 + 36 x191 + 26 x192 + 20 x193 + 34 x194
       + 43 x195 + 74 x196 + 91 x197 + 68 x198 + 82 x199 + 86 x200 + 111 x201
       + 160 x202 + 210 x203 + 136 x204 + 121 x205 + 18 x206 + 11 x207
       + 27 x208 + 32 x209 + 42 x210 + 61 x211 + 80 x212 + 64 x213 + 77 x214
       + 68 x215 + 92 x216 + 140 x217 + 190 x218 + 116 x219 + 103 x220
       + 11 x221 + 34 x222 + 31 x223 + 56 x224 + 63 x225 + 85 x226 + 75 x227
       + 87 x228 + 62 x229 + 83 x230 + 129 x231 + 178 x232 + 100 x233 + 99 x234
       + 23 x235 + 24 x236 + 53 x237 + 68 x238 + 89 x239 + 74 x240 + 87 x241
       + 71 x242 + 93 x243 + 140 x244 + 189 x245 + 111 x246 + 107 x247
       + 15 x248 + 62 x249 + 87 x250 + 106 x251 + 87 x252 + 100 x253 + 93 x254
       + 116 x255 + 163 x256 + 212 x257 + 132 x258 + 130 x259 + 73 x260
       + 92 x261 + 112 x262 + 96 x263 + 109 x264 + 93 x265 + 113 x266
       + 158 x267 + 205 x268 + 122 x269 + 130 x270 + 44 x271 + 54 x272
       + 26 x273 + 39 x274 + 68 x275 + 94 x276 + 144 x277 + 196 x278 + 139 x279
       + 95 x280 + 22 x281 + 34 x282 + 38 x283 + 30 x284 + 53 x285 + 102 x286
       + 154 x287 + 109 x288 + 51 x289 + 33 x290 + 29 x291 + 46 x292 + 64 x293
       + 107 x294 + 157 x295 + 125 x296 + 51 x297 + 13 x298 + 63 x299 + 87 x300
       + 135 x301 + 186 x302 + 141 x303 + 81 x304 + 68 x305 + 90 x306
       + 136 x307 + 186 x308 + 148 x309 + 79 x310 + 26 x311 + 77 x312
       + 128 x313 + 80 x314 + 37 x315 + 50 x316 + 102 x317 + 65 x318 + 27 x319
       + 51 x320 + 64 x321 + 58 x322 + 93 x323 + 107 x324 + 90 x325
Subject To
 c1:  x1 + x2 + x3 + x4 + x5 + x6 + x7 + x8 + x9 + x10 + x11 + x12 + x13 + x14
      + x15 + x16 + x17 + x18 + x19 + x20 + x21 + x22 + x23 + x24 + x25  = 2
 c2:  x1 + x26 + x27 + x28 + x29 + x30 + x31 + x32 + x33 + x34 + x35 + x36
      + x37 + x38 + x39 + x40 + x41 + x42 + x43 + x44 + x45 + x46 + x47 + x48
      + x49  = 2
 c3:  x2 + x26 + x50 + x51 + x52 + x53 + x54 + x55 + x56 + x57 + x58 + x59
      + x60 + x61 + x62 + x63 + x64 + x65 + x66 + x67 + x68 + x69 + x70 + x71
      + x72  = 2
 c4:  x3 + x27 + x50 + x73 + x74 + x75 + x76 + x77 + x78 + x79 + x80 + x81
      + x82 + x83 + x84 + x85 + x86 + x87 + x88 + x89 + x90 + x91 + x92 + x93
      + x94  = 2
 c5:  x4 + x28 + x51 + x73 + x95 + x96 + x97 + x98 + x99 + x100 + x101 + x102
      + x103 + x104 + x105 + x106 + x107 + x108 + x109 + x110 + x111 + x112
      + x113 + x114 + x115  = 2
 c6:  x5 + x29 + x52 + x74 + x95 + x116 + x117 + x118 + x119 + x120 + x121
      + x122 + x123 + x124 + x125 + x126 + x127 + x128 + x129 + x130 + x131
      + x132 + x133 + x134 + x135  = 2
 c7:  x6 + x30 + x53 + x75 + x96 + x116 + x136 + x137 + x138 + x139 + x140
      + x141 + x142 + x143 + x144 + x145 + x146 + x147 + x148 + x149 + x150
      + x151 + x152 + x153 + x154  = 2
 c8:  x7 + x31 + x54 + x76 + x97 + x117 + x136 + x155 + x156 + x157 + x158
      + x159 + x160 + x161 + x162 + x163 + x164 + x165 + x166 + x167 + x168
      + x169 + x170 + x171 + x172  = 2
 c9:  x8 + x32 + x55 + x77 + x98 + x118 + x137 + x155 + x173 + x174 + x175
      + x176 + x177 + x178 + x179 + x180 + x181 + x182 + x183 + x184 + x185
      + x186 + x187 + x188 + x189  = 2
 c10: x9 + x33 + x56 + x78 + x99 + x119 + x138 + x156 + x173 + x190 + x191
      + x192 + x193 + x194 + x195 + x196 + x197 + x198 + x199 + x200 + x201
      + x202 + x203 + x204 + x205  = 2
 c11: x10 + x34 + x57 + x79 + x100 + x120 + x139 + x157 + x174 + x190 + x206
      + x207 + x208 + x209 + x210 + x211 + x212 + x213 + x214 + x215 + x216
      + x217 + x218 + x219 + x220  = 2
 c12: x11 + x35 + x58 + x80 + x101 + x121 + x140 + x158 + x175 + x191 + x206
      + x221 + x222 + x223 + x224 + x225 + x226 + x227 + x228 + x229 + x230
      + x231 + x232 + x233 + x234  = 2
 c13: x12 + x36 + x59 + x81 + x102 + x122 + x141 + x159 + x176 + x192 + x207
      + x221 + x235 + x236 + x237 + x238 + x239 + x240 + x241 + x242 + x243
      + x244 + x245 + x246 + x247  = 2
 c14: x13 + x37 + x60 + x82 + x103 + x123 + x142 + x160 + x177 + x193 + x208
      + x222 + x235 + x248 + x249 + x250 + x251 + x252 + x253 + x254 + x255
      + x256 + x257 + x258 + x259  = 2
 c15: x14 + x38 + x61 + x83 + x104 + x124 + x143 + x161 + x178 + x194 + x209
      + x223 + x236 + x248 + x260 + x261 + x262 + x263 + x264 + x265 + x266
      + x267 + x268 + x269 + x270  = 2
 c16: x15 + x39 + x62 + x84 + x105 + x125 + x144 + x162 + x179 + x195 + x210
      + x224 + x237 + x249 + x260 + x271 + x272 + x273 + x274 + x275 + x276
      + x277 + x278 + x279 + x280  = 2
 c17: x16 + x40 + x63 + x85 + x106 + x126 + x145 + x163 + x180 + x196 + x211
      + x225 + x238 + x250 + x261 + x271 + x281 + x282 + x283 + x284 + x285
      + x286 + x287 + x288 + x289  = 2
 c18: x17 + x41 + x64 + x86 + x107 + x127 + x146 + x164 + x181 + x197 + x212
      + x226 + x239 + x251 + x262 + x272 + x281 + x290 + x291 + x292 + x293
      + x294 + x295 + x296 + x297  = 2
 c19: x18 + x42 + x65 + x87 + x108 + x128 + x147 + x165 + x182 + x198 + x213
      + x227 + x240 + x252 + x263 + x273 + x282 + x290 + x298 + x299 + x300
      + x301 + x302 + x303 + x304  = 2
 c20: x19 + x43 + x66 + x88 + x109 + x129 + x148 + x166 + x183 + x199 + x214
      + x228 + x241 + x253 + x264 + x274 + x283 + x291 + x298 + x305 + x306
      + x307 + x308 + x309 + x310  = 2
 c21: x20 + x44 + x67 + x89 + x110 + x130 + x149 + x167 + x184 + x200 + x215
      + x229 + x242 + x254 + x265 + x275 + x284 + x292 + x299 + x305 + x311
      + x312 + x313 + x314 + x315  = 2
 c22: x21 + x45 + x68 + x90 + x111 + x131 + x150 + x168 + x185 + x201 + x216
      + x230 + x243 + x255 + x266 + x276 + x285 + x293 + x300 + x306 + x311
      + x316 + x317 + x318 + x319  = 2
 c23: x22 + x46 + x69 + x91 + x112 + x132 + x151 + x169 + x186 + x202 + x217
      + x231 + x244 + x256 + x267 + x277 + x286 + x294 + x301 + x307 + x312
      + x316 + x320 + x321 + x322  = 2
 c24: x23 + x47 + x70 + x92 + x113 + x133 + x152 + x170 + x187 + x203 + x218
      + x232 + x245 + x257 + x268 + x278 + x287 + x295 + x302 + x308 + x313
      + x317 + x320 + x323 + x324  = 2
 c25: x24 + x48 + x71 + x93 + x114 + x134 + x153 + x171 + x188 + x204 + x219
      + x233 + x246 + x258 + x269 + x279 + x288 + x296 + x303 + x309 + x314
      + x318 + x321 + x323 + x325  = 2
 c26: x25 + x49 + x72 + x94 + x115 + x135 + x154 + x172 + x189 + x205 + x220
      + x234 + x247 + x259 + x270 + x280 + x289 + x297 + x304 + x310 + x315
      + x319 + x322 + x324 + x325  = 2
 c27: x1 + x2 + x9 + x13 + x14 + x26 + x33 + x37 + x38 + x56 + x60 + x61 + x193
      + x194 + x248 <= 5
 c28: x73 + x74 + x95 <= 2
 c29: x136 + x137 + x155 <= 2
 c30: x206 + x207 + x221 <= 2
 c31: x271 + x272 + x273 + x274 + x281 + x282 + x283 + x290 + x291 + x298 <= 4
 c32: x311 + x315 + x319 <= 2
 c33: x320 + x321 + x323 <= 2
 c34: x1 + x2 + x3 + x4 + x5 + x6 + x7 + x8 + x15 + x16 + x17 + x18 + x19 + x20
      + x21 + x22 + x23 + x24 + x25 + x26 + x27 + x28 + x29 + x30 + x31 + x32
      + x39 + x40 + x41 + x42 + x43 + x44 + x45 + x46 + x47 + x48 + x49 + x50
      + x51 + x52 + x53 + x54 + x55 + x62 + x63 + x64 + x65 + x66 + x67 + x68
      + x69 + x70 + x71 + x72 + x73 + x74 + x75 + x76 + x77 + x84 + x85 + x86
      + x87 + x88 + x89 + x90 + x91 + x92 + x93 + x94 + x95 + x96 + x97 + x98
      + x105 + x106 + x107 + x108 + x109 + x110 + x111 + x112 + x113 + x114
      + x115 + x116 + x117 + x118 + x125 + x126 + x127 + x128 + x129 + x130
      + x131 + x132 + x133 + x134 + x135 + x136 + x137 + x144 + x145 + x146
      + x147 + x148 + x149 + x150 + x151 + x152 + x153 + x154 + x155 + x162
      + x163 + x164 + x165 + x166 + x167 + x168 + x169 + x170 + x171 + x172
      + x179 + x180 + x181 + x182 + x183 + x184 + x185 + x186 + x187 + x188
      + x189 + x271 + x272 + x273 + x274 + x275 + x276 + x277 + x278 + x279
      + x280 + x281 + x282 + x283 + x284 + x285 + x286 + x287 + x288 + x289
      + x290 + x291 + x292 + x293 + x294 + x295 + x296 + x297 + x298 + x299
      + x300 + x301 + x302 + x303 + x304 + x305 + x306 + x307 + x308 + x309
      + x310 + x311 + x312 + x313 + x314 + x315 + x316 + x317 + x318 + x319
      + x320 + x321 + x322 + x323 + x324 + x325 <= 19
 c35: x190 + x191 + x192 + x193 + x194 + x206 + x207 + x208 + x209 + x221
      + x222 + x223 + x235 + x236 + x248 <= 5
Bounds
 0 <= x1 <= 1
 0 <= x2 <= 1
 0 <= x3 <= 1
 0 <= x4 <= 1
 0 <= x5 <= 1
 0 <= x6 <= 1
 0 <= x7 <= 1
 0 <= x8 <= 1
 0 <= x9 <= 1
 0 <= x10 <= 1
 0 <= x11 <= 1
 0 <= x12 <= 1
 0 <= x13 <= 1
 0 <= x14 <= 1
 0 <= x15 <= 1
 0 <= x16 <= 1
 0 <= x17 <= 1
 0 <= x18 <= 1
 0 <= x19 <= 1
 0 <= x20 <= 1
 0 <= x21 <= 1
 0 <= x22 <= 1
 0 <= x23 <= 1
 0 <= x24 <= 1
 0 <= x25 <= 1
 0 <= x26 <= 1
 0 <= x27 <= 1
 0 <= x28 <= 1
 0 <= x29 <= 1
 0 <= x30 <= 1
 0 <= x31 <= 1
 0 <= x32 <= 1
 0 <= x33 <= 1
 0 <= x34 <= 1
 0 <= x35 <= 1
 0 <= x36 <= 1
 0 <= x37 <= 1
 0 <= x38 <= 1
 0 <= x39 <= 1
 0 <= x40 <= 1
 0 <= x41 <= 1
 0 <= x42 <= 1
 0 <= x43 <= 1
 0 <= x44 <= 1
 0 <= x45 <= 1
 0 <= x46 <= 1
 0 <= x47 <= 1
 0 <= x48 <= 1
 0 <= x49 <= 1
 0 <= x50 <= 1
 0 <= x51 <= 1
 0 <= x52 <= 1
 0 <= x53 <= 1
 0 <= x54 <= 1
 0 <= x55 <= 1
 0 <= x56 <= 1
 0 <= x57 <= 1
 0 <= x58 <= 1
 0 <= x59 <= 1
 0 <= x60 <= 1
 0 <= x61 <= 1
 0 <= x62 <= 1
 0 <= x63 <= 1
 0 <= x64 <= 1
 0 <= x65 <= 1
 0 <= x66 <= 1
 0 <= x67 <= 1
 0 <= x68 <= 1
 0 <= x69 <= 1
 0 <= x70 <= 1
 0 <= x71 <= 1
 0 <= x72 <= 1
 0 <= x73 <= 1
 0 <= x74 <= 1
 0 <= x75 <= 1
 0 <= x76 <= 1
 0 <= x77 <= 1
 0 <= x78 <= 1
 0 <= x79 <= 1
 0 <= x80 <= 1
 0 <= x81 <= 1
 0 <= x82 <= 1
 0 <= x83 <= 1
 0 <= x84 <= 1
 0 <= x85 <= 1
 0 <= x86 <= 1
 0 <= x87 <= 1
 0 <= x88 <= 1
 0 <= x89 <= 1
 0 <= x90 <= 1
 0 <= x91 <= 1
 0 <= x92 <= 1
 0 <= x93 <= 1
 0 <= x94 <= 1
 0 <= x95 <= 1
 0 <= x96 <= 1
 0 <= x97 <= 1
 0 <= x98 <= 1
 0 <= x99 <= 1
 0 <= x100 <= 1
 0 <= x101 <= 1
 0 <= x102 <= 1
 0 <= x103 <= 1
 0 <= x104 <= 1
 0 <= x105 <= 1
 0 <= x106 <= 1
 0 <= x107 <= 1
 0 <= x108 <= 1
 0 <= x109 <= 1
 0 <= x110 <= 1
 0 <= x111 <= 1
 0 <= x112 <= 1
 0 <= x113 <= 1
 0 <= x114 <= 1
 0 <= x115 <= 1
 0 <= x116 <= 1
 0 <= x117 <= 1
 0 <= x118 <= 1
 0 <= x119 <= 1
 0 <= x120 <= 1
 0 <= x121 <= 1
 0 <= x122 <= 1
 0 <= x123 <= 1
 0 <= x124 <= 1
 0 <= x125 <= 1
 0 <= x126 <= 1
 0 <= x127 <= 1
 0 <= x128 <= 1
 0 <= x129 <= 1
 0 <= x130 <= 1
 0 <= x131 <= 1
 0 <= x132 <= 1
 0 <= x133 <= 1
 0 <= x134 <= 1
 0 <= x135 <= 1
 0 <= x136 <= 1
 0 <= x137 <= 1
 0 <= x138 <= 1
 0 <= x139 <= 1
 0 <= x140 <= 1
 0 <= x141 <= 1
 0 <= x142 <= 1
 0 <= x143 <= 1
 0 <= x144 <= 1
 0 <= x145 <= 1
 0 <= x146 <= 1
 0 <= x147 <= 1
 0 <= x148 <= 1
 0 <= x149 <= 1
 0 <= x150 <= 1
 0 <= x151 <= 1
 0 <= x152 <= 1
 0 <= x153 <= 1
 0 <= x154 <= 1
 0 <= x155 <= 1
 0 <= x156 <= 1
 0 <= x157 <= 1
 0 <= x158 <= 1
 0 <= x159 <= 1
 0 <= x160 <= 1
 0 <= x161 <= 1
 0 <= x162 <= 1
 0 <= x163 <= 1
 0 <= x164 <= 1
 0 <= x165 <= 1
 0 <= x166 <= 1
 0 <= x167 <= 1
 0 <= x168 <= 1
 0 <= x169 <= 1
 0 <= x170 <= 1
 0 <= x171 <= 1
 0 <= x172 <= 1
 0 <= x173 <= 1
 0 <= x174 <= 1
 0 <= x175 <= 1
 0 <= x176 <= 1
 0 <= x177 <= 1
 0 <= x178 <= 1
 0 <= x179 <= 1
 0 <= x180 <= 1
 0 <= x181 <= 1
 0 <= x182 <= 1
 0 <= x183 <= 1
 0 <= x184 <= 1
 0 <= x185 <= 1
 0 <= x186 <= 1
 0 <= x187 <= 1
 0 <= x188 <= 1
 0 <= x189 <= 1
 0 <= x190 <= 1
 0 <= x191 <= 1
 0 <= x192 <= 1
 0 <= x193 <= 1
 0 <= x194 <= 1
 0 <= x195 <= 1
 0 <= x196 <= 1
 0 <= x197 <= 1
 0 <= x198 <= 1
 0 <= x199 <= 1
 0 <= x200 <= 1
 0 <= x201 <= 1
 0 <= x202 <= 1
 0 <= x203 <= 1
 0 <= x204 <= 1
 0 <= x205 <= 1
 0 <= x206 <= 1
 0 <= x207 <= 1
 0 <= x208 <= 1
 0 <= x209 <= 1
 0 <= x210 <= 1
 0 <= x211 <= 1
 0 <= x212 <= 1
 0 <= x213 <= 1
 0 <= x214 <= 1
 0 <= x215 <= 1
 0 <= x216 <= 1
 0 <= x217 <= 1
 0 <= x218 <= 1
 0 <= x219 <= 1
 0 <= x220 <= 1
 0 <= x221 <= 1
 0 <= x222 <= 1
 0 <= x223 <= 1
 0 <= x224 <= 1
 0 <= x225 <= 1
 0 <= x226 <= 1
 0 <= x227 <= 1
 0 <= x228 <= 1
 0 <= x229 <= 1
 0 <= x230 <= 1
 0 <= x231 <= 1
 0 <= x232 <= 1
 0 <= x233 <= 1
 0 <= x234 <= 1
 0 <= x235 <= 1
 0 <= x236 <= 1
 0 <= x237 <= 1
 0 <= x238 <= 1
 0 <= x239 <= 1
 0 <= x240 <= 1
 0 <= x241 <= 1
 0 <= x242 <= 1
 0 <= x243 <= 1
 0 <= x244 <= 1
 0 <= x245 <= 1
 0 <= x246 <= 1
 0 <= x247 <= 1
 0 <= x248 <= 1
 0 <= x249 <= 1
 0 <= x250 <= 1
 0 <= x251 <= 1
 0 <= x252 <= 1
 0 <= x253 <= 1
 0 <= x254 <= 1
 0 <= x255 <= 1
 0 <= x256 <= 1
 0 <= x257 <= 1
 0 <= x258 <= 1
 0 <= x259 <= 1
 0 <= x260 <= 1
 0 <= x261 <= 1
 0 <= x262 <= 1
 0 <= x263 <= 1
 0 <= x264 <= 1
 0 <= x265 <= 1
 0 <= x266 <= 1
 0 <= x267 <= 1
 0 <= x268 <= 1
 0 <= x269 <= 1
 0 <= x270 <= 1
 0 <= x271 <= 1
 0 <= x272 <= 1
 0 <= x273 <= 1
 0 <= x274 <= 1
 0 <= x275 <= 1
 0 <= x276 <= 1
 0 <= x277 <= 1
 0 <= x278 <= 1
 0 <= x279 <= 1
 0 <= x280 <= 1
 0 <= x281 <= 1
 0 <= x282 <= 1
 0 <= x283 <= 1
 0 <= x284 <= 1
 0 <= x285 <= 1
 0 <= x286 <= 1
 0 <= x287 <= 1
 0 <= x288 <= 1
 0 <= x289 <= 1
 0 <= x290 <= 1
 0 <= x291 <= 1
 0 <= x292 <= 1
 0 <= x293 <= 1
 0 <= x294 <= 1
 0 <= x295 <= 1
 0 <= x296 <= 1
 0 <= x297 <= 1
 0 <= x298 <= 1
 0 <= x299 <= 1
 0 <= x300 <= 1
 0 <= x301 <= 1
 0 <= x302 <= 1
 0 <= x303 <= 1
 0 <= x304 <= 1
 0 <= x305 <= 1
 0 <= x306 <= 1
 0 <= x307 <= 1
 0 <= x308 <= 1
 0 <= x309 <= 1
 0 <= x310 <= 1
 0 <= x311 <= 1
 0 <= x312 <= 1
 0 <= x313 <= 1
 0 <= x314 <= 1
 0 <= x315 <= 1
 0 <= x316 <= 1
 0 <= x317 <= 1
 0 <= x318 <= 1
 0 <= x319 <= 1
 0 <= x320 <= 1
 0 <= x321 <= 1
 0 <= x322 <= 1
 0 <= x323 <= 1
 0 <= x324 <= 1
 0 <= x325 <= 1
Binaries
 x1  x2  x3  x4  x5  x6  x7  x8  x9  x10  x11  x12  x13  x14  x15  x16  x17 
 x18  x19  x20  x21  x22  x23  x24  x25  x26  x27  x28  x29  x30  x31  x32 
 x33  x34  x35  x36  x37  x38  x39  x40  x41  x42  x43  x44  x45  x46  x47 
 x48  x49  x50  x51  x52  x53  x54  x55  x56  x57  x58  x59  x60  x61  x62 
 x63  x64  x65  x66  x67  x68  x69  x70  x71  x72  x73  x74  x75  x76  x77 
 x78  x79  x80  x81  x82  x83  x84  x85  x86  x87  x88  x89  x90  x91  x92 
 x93  x94  x95  x96  x97  x98  x99  x100  x101  x102  x103  x104  x105  x106 
 x107  x108  x109  x110  x111  x112  x113  x114  x115  x116  x117  x118  x119 
 x120  x121  x122  x123  x124  x125  x126  x127  x128  x129  x130  x131  x132 
 x133  x134  x135  x136  x137  x138  x139  x140  x141  x142  x143  x144  x145 
 x146  x147  x148  x149  x150  x151  x152  x153  x154  x155  x156  x157  x158 
 x159  x160  x161  x162  x163  x164  x165  x166  x167  x168  x169  x170  x171 
 x172  x173  x174  x175  x176  x177  x178  x179  x180  x181  x182  x183  x184 
 x185  x186  x187  x188  x189  x190  x191  x192  x193  x194  x195  x196  x197 
 x198  x199  x200  x201  x202  x203  x204  x205  x206  x207  x208  x209  x210 
 x211  x212  x213  x214  x215  x216  x217  x218  x219  x220  x221  x222  x223 
 x224  x225  x226  x227  x228  x229  x230  x231  x232  x233  x234  x235  x236 
 x237  x238  x239  x240  x241  x242  x243  x244  x245  x246  x247  x248  x249 
 x250  x251  x252  x253  x254  x255  x256  x257  x258  x259  x260  x261  x262 
 x263  x264  x265  x266  x267  x268  x269  x270  x271  x272  x273  x274  x275 
 x276  x277  x278  x279  x280  x281  x282  x283  x284  x285  x286  x287  x288 
 x289  x290  x291  x292  x293  x294  x295  x296  x297  x298  x299  x300  x301 
 x302  x303  x304  x305  x306  x307  x308  x309  x310  x311  x312  x313  x314 
 x315  x316  x317  x318  x319  x320  x321  x322  x323  x324  x325 
End
